nK = 1871;
nT = 8;
nI = 21;
L = 35;
TT = 405;
np = 1;
nc = 3;
b = [24, 47, 51, 22, 34, 52, 56, 24, 28, 41, 52, 47, 51, 49, 37, 27, 41, 65, 67, 65, 34];
d = [56, 75, 98, 92, 91, 91, 146, 103, 61, 116, 78, 98, 125, 127, 114, 101, 96, 121, 147, 130, 56];
m = [1.8, 1.3, 1, 1.4, 2.3, 2.2, 1.5, 1.6, 1.5, 1.5, 2, 1.7, 2, 2.1, 2.2, 2, 1.6, 1.1, 1.3, 1.5, 1.2];
pt = [0.35, 0.31, 0.21, 0.33, 0.29, 0.29, 0.27, 0.26];
st = [16.1, 14.57, 12.18, 15.51, 14.21, 13.05, 15.12, 14.04];
arc = {<1, 0, 1, 1, 0, 0, 0, [1, 1, 1, 1, 1, 1, 1, 1]>, <2, 1, 2, 1, 0, 0, 0, [1, 1, 1, 1, 1, 1, 1, 1]>, <3, 2, 3, 1, 0, 0, 0, [1, 1, 1, 1, 1, 1, 1, 1]>, <4, 3, 4, 1, 0, 0, 0, [1, 1, 1, 1, 1, 1, 1, 1]>, <5, 4, 5, 1, 0, 0, 0, [1, 1, 1, 1, 1, 1, 1, 1]>, <6, 5, 6, 1, 0, 0, 0, [1, 1, 1, 1, 1, 1, 1, 1]>, <7, 6, 7, 1, 0, 0, 0, [1, 1, 1, 1, 1, 1, 1, 1]>, <8, 7, 8, 1, 0, 0, 0, [1, 1, 1, 1, 1, 1, 1, 1]>, <9, 8, 9, 1, 0, 0, 0, [1, 1, 1, 1, 1, 1, 1, 1]>, <10, 9, 10, 1, 0, 0, 0, [1, 1, 1, 1, 1, 1, 1, 1]>, <11, 10, 11, 1, 0, 0, 0, [1, 1, 1, 1, 1, 1, 1, 1]>, <12, 11, 12, 1, 0, 0, 0, [1, 1, 1, 1, 1, 1, 1, 1]>, <13, 12, 13, 1, 0, 0, 0, [1, 1, 1, 1, 1, 1, 1, 1]>, <14, 13, 14, 1, 0, 0, 0, [1, 1, 1, 1, 1, 1, 1, 1]>, <15, 14, 15, 1, 0, 0, 0, [1, 1, 1, 1, 1, 1, 1, 1]>, <16, 15, 16, 1, 0, 0, 0, [1, 1, 1, 1, 1, 1, 1, 1]>, <17, 16, 17, 1, 0, 0, 0, [1, 1, 1, 1, 1, 1, 1, 1]>, <18, 17, 18, 1, 0, 0, 0, [1, 1, 1, 1, 1, 1, 1, 1]>, <19, 18, 19, 1, 0, 0, 0, [1, 1, 1, 1, 1, 1, 1, 1]>, <20, 19, 20, 1, 0, 0, 0, [1, 1, 1, 1, 1, 1, 1, 1]>, <21, 20, 21, 1, 0, 0, 0, [1, 1, 1, 1, 1, 1, 1, 1]>, <22, 21, 22, 1, 0, 0, 0, [1, 1, 1, 1, 1, 1, 1, 1]>, <23, 22, 23, 1, 0, 0, 0, [1, 1, 1, 1, 1, 1, 1, 1]>, <24, 23, 24, 1, 0, 0, 0, [1, 1, 1, 1, 1, 1, 1, 1]>, <25, 24, 25, 1, 0, 0, 0, [1, 1, 1, 1, 1, 1, 1, 1]>, <26, 25, 26, 1, 0, 0, 0, [1, 1, 1, 1, 1, 1, 1, 1]>, <27, 26, 27, 1, 0, 0, 0, [1, 1, 1, 1, 1, 1, 1, 1]>, <28, 27, 28, 1, 0, 0, 0, [1, 1, 1, 1, 1, 1, 1, 1]>, <29, 28, 29, 1, 0, 0, 0, [1, 1, 1, 1, 1, 1, 1, 1]>, <30, 29, 30, 1, 0, 0, 0, [1, 1, 1, 1, 1, 1, 1, 1]>, <31, 30, 31, 1, 0, 0, 0, [1, 1, 1, 1, 1, 1, 1, 1]>, <32, 31, 32, 1, 0, 0, 0, [1, 1, 1, 1, 1, 1, 1, 1]>, <33, 32, 33, 1, 0, 0, 0, [1, 1, 1, 1, 1, 1, 1, 1]>, <34, 33, 34, 1, 0, 0, 0, [1, 1, 1, 1, 1, 1, 1, 1]>, <35, 34, 35, 1, 0, 0, 0, [1, 1, 1, 1, 1, 1, 1, 1]>, <36, 5, 17, 12, 1, 0, 0, [1, 1, 1, 0, 0, 0, 0, 1]>, <37, 6, 18, 12, 1, 0, 0, [1, 1, 1, 0, 0, 0, 0, 1]>, <38, 14, 26, 12, 1, 0, 0, [1, 1, 1, 0, 0, 0, 0, 1]>, <39, 15, 27, 12, 1, 0, 0, [1, 1, 1, 0, 0, 0, 0, 1]>, <40, 19, 31, 12, 1, 0, 0, [1, 1, 1, 0, 0, 0, 0, 1]>, <41, 20, 32, 12, 1, 0, 0, [1, 1, 1, 0, 0, 0, 0, 1]>, <42, 21, 33, 12, 1, 0, 0, [1, 1, 1, 0, 0, 0, 0, 1]>, <43, 22, 34, 12, 1, 0, 0, [1, 1, 1, 0, 0, 0, 0, 1]>, <44, 23, 35, 12, 1, 0, 0, [1, 1, 1, 0, 0, 0, 0, 1]>, <45, 5, 15, 10, 2, 0, 0, [0, 0, 1, 1, 1, 1, 0, 0]>, <46, 6, 16, 10, 2, 0, 0, [0, 0, 1, 1, 1, 1, 0, 0]>, <47, 14, 24, 10, 2, 0, 0, [0, 0, 1, 1, 1, 1, 0, 0]>, <48, 15, 25, 10, 2, 0, 0, [0, 0, 1, 1, 1, 1, 0, 0]>, <49, 21, 31, 10, 2, 0, 0, [0, 0, 1, 1, 1, 1, 0, 0]>, <50, 22, 32, 10, 2, 0, 0, [0, 0, 1, 1, 1, 1, 0, 0]>, <51, 23, 33, 10, 2, 0, 0, [0, 0, 1, 1, 1, 1, 0, 0]>, <52, 24, 34, 10, 2, 0, 0, [0, 0, 1, 1, 1, 1, 0, 0]>, <53, 5, 14, 9, 3, 1, 0, [1, 1, 1, 1, 0, 0, 0, 0]>, <54, 6, 15, 9, 3, 1, 0, [1, 1, 1, 1, 0, 0, 0, 0]>, <55, 14, 23, 9, 3, 1, 0, [1, 1, 1, 1, 0, 0, 0, 0]>, <56, 15, 24, 9, 3, 1, 0, [1, 1, 1, 1, 0, 0, 0, 0]>, <57, 22, 31, 9, 3, 1, 0, [1, 1, 1, 1, 0, 0, 0, 0]>, <58, 23, 32, 9, 3, 1, 0, [1, 1, 1, 1, 0, 0, 0, 0]>, <59, 24, 33, 9, 3, 1, 0, [1, 1, 1, 1, 0, 0, 0, 0]>, <60, 2, 17, 15, 4, 0, 1, [1, 1, 1, 1, 0, 0, 0, 0]>, <61, 3, 18, 15, 4, 0, 1, [1, 1, 1, 1, 0, 0, 0, 0]>, <62, 4, 19, 15, 4, 0, 1, [1, 1, 1, 1, 0, 0, 0, 0]>, <63, 5, 20, 15, 4, 0, 1, [1, 1, 1, 1, 0, 0, 0, 0]>, <64, 6, 21, 15, 4, 0, 1, [1, 1, 1, 1, 0, 0, 0, 0]>, <65, 11, 26, 15, 4, 0, 1, [1, 1, 1, 1, 0, 0, 0, 0]>, <66, 12, 27, 15, 4, 0, 1, [1, 1, 1, 1, 0, 0, 0, 0]>, <67, 13, 28, 15, 4, 0, 1, [1, 1, 1, 1, 0, 0, 0, 0]>, <68, 14, 29, 15, 4, 0, 1, [1, 1, 1, 1, 0, 0, 0, 0]>, <69, 15, 30, 15, 4, 0, 1, [1, 1, 1, 1, 0, 0, 0, 0]>, <70, 16, 31, 15, 4, 0, 1, [1, 1, 1, 1, 0, 0, 0, 0]>, <71, 17, 32, 15, 4, 0, 1, [1, 1, 1, 1, 0, 0, 0, 0]>, <72, 18, 33, 15, 4, 0, 1, [1, 1, 1, 1, 0, 0, 0, 0]>, <73, 19, 34, 15, 4, 0, 1, [1, 1, 1, 1, 0, 0, 0, 0]>, <74, 20, 35, 15, 4, 0, 1, [1, 1, 1, 1, 0, 0, 0, 0]>, <75, 5, 16, 11, 5, 0, 1, [0, 1, 1, 1, 1, 0, 0, 0]>, <76, 6, 17, 11, 5, 0, 1, [0, 1, 1, 1, 1, 0, 0, 0]>, <77, 14, 25, 11, 5, 0, 1, [0, 1, 1, 1, 1, 0, 0, 0]>, <78, 15, 26, 11, 5, 0, 1, [0, 1, 1, 1, 1, 0, 0, 0]>, <79, 20, 31, 11, 5, 0, 1, [0, 1, 1, 1, 1, 0, 0, 0]>, <80, 21, 32, 11, 5, 0, 1, [0, 1, 1, 1, 1, 0, 0, 0]>, <81, 22, 33, 11, 5, 0, 1, [0, 1, 1, 1, 1, 0, 0, 0]>, <82, 23, 34, 11, 5, 0, 1, [0, 1, 1, 1, 1, 0, 0, 0]>, <83, 24, 35, 11, 5, 0, 1, [0, 1, 1, 1, 1, 0, 0, 0]>, <84, 5, 15, 10, 6, 0, 0, [0, 0, 0, 1, 1, 1, 1, 0]>, <85, 6, 16, 10, 6, 0, 0, [0, 0, 0, 1, 1, 1, 1, 0]>, <86, 14, 24, 10, 6, 0, 0, [0, 0, 0, 1, 1, 1, 1, 0]>, <87, 15, 25, 10, 6, 0, 0, [0, 0, 0, 1, 1, 1, 1, 0]>, <88, 21, 31, 10, 6, 0, 0, [0, 0, 0, 1, 1, 1, 1, 0]>, <89, 22, 32, 10, 6, 0, 0, [0, 0, 0, 1, 1, 1, 1, 0]>, <90, 23, 33, 10, 6, 0, 0, [0, 0, 0, 1, 1, 1, 1, 0]>, <91, 24, 34, 10, 6, 0, 0, [0, 0, 0, 1, 1, 1, 1, 0]>, <92, 4, 17, 13, 7, 0, 0, [1, 1, 1, 0, 0, 0, 0, 1]>, <93, 5, 18, 13, 7, 0, 0, [1, 1, 1, 0, 0, 0, 0, 1]>, <94, 6, 19, 13, 7, 0, 0, [1, 1, 1, 0, 0, 0, 0, 1]>, <95, 13, 26, 13, 7, 0, 0, [1, 1, 1, 0, 0, 0, 0, 1]>, <96, 14, 27, 13, 7, 0, 0, [1, 1, 1, 0, 0, 0, 0, 1]>, <97, 15, 28, 13, 7, 0, 0, [1, 1, 1, 0, 0, 0, 0, 1]>, <98, 18, 31, 13, 7, 0, 0, [1, 1, 1, 0, 0, 0, 0, 1]>, <99, 19, 32, 13, 7, 0, 0, [1, 1, 1, 0, 0, 0, 0, 1]>, <100, 20, 33, 13, 7, 0, 0, [1, 1, 1, 0, 0, 0, 0, 1]>, <101, 21, 34, 13, 7, 0, 0, [1, 1, 1, 0, 0, 0, 0, 1]>, <102, 22, 35, 13, 7, 0, 0, [1, 1, 1, 0, 0, 0, 0, 1]>, <103, 5, 16, 11, 8, 1, 0, [0, 0, 0, 1, 1, 1, 1, 0]>, <104, 6, 17, 11, 8, 1, 0, [0, 0, 0, 1, 1, 1, 1, 0]>, <105, 14, 25, 11, 8, 1, 0, [0, 0, 0, 1, 1, 1, 1, 0]>, <106, 15, 26, 11, 8, 1, 0, [0, 0, 0, 1, 1, 1, 1, 0]>, <107, 20, 31, 11, 8, 1, 0, [0, 0, 0, 1, 1, 1, 1, 0]>, <108, 21, 32, 11, 8, 1, 0, [0, 0, 0, 1, 1, 1, 1, 0]>, <109, 22, 33, 11, 8, 1, 0, [0, 0, 0, 1, 1, 1, 1, 0]>, <110, 23, 34, 11, 8, 1, 0, [0, 0, 0, 1, 1, 1, 1, 0]>, <111, 24, 35, 11, 8, 1, 0, [0, 0, 0, 1, 1, 1, 1, 0]>, <112, 5, 16, 11, 9, 0, 0, [1, 0, 0, 0, 0, 1, 1, 1]>, <113, 6, 17, 11, 9, 0, 0, [1, 0, 0, 0, 0, 1, 1, 1]>, <114, 14, 25, 11, 9, 0, 0, [1, 0, 0, 0, 0, 1, 1, 1]>, <115, 15, 26, 11, 9, 0, 0, [1, 0, 0, 0, 0, 1, 1, 1]>, <116, 20, 31, 11, 9, 0, 0, [1, 0, 0, 0, 0, 1, 1, 1]>, <117, 21, 32, 11, 9, 0, 0, [1, 0, 0, 0, 0, 1, 1, 1]>, <118, 22, 33, 11, 9, 0, 0, [1, 0, 0, 0, 0, 1, 1, 1]>, <119, 23, 34, 11, 9, 0, 0, [1, 0, 0, 0, 0, 1, 1, 1]>, <120, 24, 35, 11, 9, 0, 0, [1, 0, 0, 0, 0, 1, 1, 1]>, <121, 5, 14, 9, 10, 1, 0, [1, 0, 0, 0, 0, 1, 1, 1]>, <122, 6, 15, 9, 10, 1, 0, [1, 0, 0, 0, 0, 1, 1, 1]>, <123, 14, 23, 9, 10, 1, 0, [1, 0, 0, 0, 0, 1, 1, 1]>, <124, 15, 24, 9, 10, 1, 0, [1, 0, 0, 0, 0, 1, 1, 1]>, <125, 22, 31, 9, 10, 1, 0, [1, 0, 0, 0, 0, 1, 1, 1]>, <126, 23, 32, 9, 10, 1, 0, [1, 0, 0, 0, 0, 1, 1, 1]>, <127, 24, 33, 9, 10, 1, 0, [1, 0, 0, 0, 0, 1, 1, 1]>, <128, 5, 15, 10, 11, 0, 1, [1, 1, 0, 0, 0, 0, 1, 1]>, <129, 6, 16, 10, 11, 0, 1, [1, 1, 0, 0, 0, 0, 1, 1]>, <130, 14, 24, 10, 11, 0, 1, [1, 1, 0, 0, 0, 0, 1, 1]>, <131, 15, 25, 10, 11, 0, 1, [1, 1, 0, 0, 0, 0, 1, 1]>, <132, 21, 31, 10, 11, 0, 1, [1, 1, 0, 0, 0, 0, 1, 1]>, <133, 22, 32, 10, 11, 0, 1, [1, 1, 0, 0, 0, 0, 1, 1]>, <134, 23, 33, 10, 11, 0, 1, [1, 1, 0, 0, 0, 0, 1, 1]>, <135, 24, 34, 10, 11, 0, 1, [1, 1, 0, 0, 0, 0, 1, 1]>, <136, 4, 17, 13, 12, 0, 1, [0, 1, 1, 1, 1, 0, 0, 0]>, <137, 5, 18, 13, 12, 0, 1, [0, 1, 1, 1, 1, 0, 0, 0]>, <138, 6, 19, 13, 12, 0, 1, [0, 1, 1, 1, 1, 0, 0, 0]>, <139, 13, 26, 13, 12, 0, 1, [0, 1, 1, 1, 1, 0, 0, 0]>, <140, 14, 27, 13, 12, 0, 1, [0, 1, 1, 1, 1, 0, 0, 0]>, <141, 15, 28, 13, 12, 0, 1, [0, 1, 1, 1, 1, 0, 0, 0]>, <142, 18, 31, 13, 12, 0, 1, [0, 1, 1, 1, 1, 0, 0, 0]>, <143, 19, 32, 13, 12, 0, 1, [0, 1, 1, 1, 1, 0, 0, 0]>, <144, 20, 33, 13, 12, 0, 1, [0, 1, 1, 1, 1, 0, 0, 0]>, <145, 21, 34, 13, 12, 0, 1, [0, 1, 1, 1, 1, 0, 0, 0]>, <146, 22, 35, 13, 12, 0, 1, [0, 1, 1, 1, 1, 0, 0, 0]>, <147, 5, 16, 11, 13, 1, 0, [1, 0, 0, 0, 0, 1, 1, 1]>, <148, 6, 17, 11, 13, 1, 0, [1, 0, 0, 0, 0, 1, 1, 1]>, <149, 14, 25, 11, 13, 1, 0, [1, 0, 0, 0, 0, 1, 1, 1]>, <150, 15, 26, 11, 13, 1, 0, [1, 0, 0, 0, 0, 1, 1, 1]>, <151, 20, 31, 11, 13, 1, 0, [1, 0, 0, 0, 0, 1, 1, 1]>, <152, 21, 32, 11, 13, 1, 0, [1, 0, 0, 0, 0, 1, 1, 1]>, <153, 22, 33, 11, 13, 1, 0, [1, 0, 0, 0, 0, 1, 1, 1]>, <154, 23, 34, 11, 13, 1, 0, [1, 0, 0, 0, 0, 1, 1, 1]>, <155, 24, 35, 11, 13, 1, 0, [1, 0, 0, 0, 0, 1, 1, 1]>, <156, 5, 14, 9, 14, 0, 1, [0, 0, 0, 1, 1, 1, 1, 0]>, <157, 6, 15, 9, 14, 0, 1, [0, 0, 0, 1, 1, 1, 1, 0]>, <158, 14, 23, 9, 14, 0, 1, [0, 0, 0, 1, 1, 1, 1, 0]>, <159, 15, 24, 9, 14, 0, 1, [0, 0, 0, 1, 1, 1, 1, 0]>, <160, 22, 31, 9, 14, 0, 1, [0, 0, 0, 1, 1, 1, 1, 0]>, <161, 23, 32, 9, 14, 0, 1, [0, 0, 0, 1, 1, 1, 1, 0]>, <162, 24, 33, 9, 14, 0, 1, [0, 0, 0, 1, 1, 1, 1, 0]>, <163, 5, 15, 10, 15, 0, 0, [1, 1, 1, 0, 0, 0, 0, 1]>, <164, 6, 16, 10, 15, 0, 0, [1, 1, 1, 0, 0, 0, 0, 1]>, <165, 14, 24, 10, 15, 0, 0, [1, 1, 1, 0, 0, 0, 0, 1]>, <166, 15, 25, 10, 15, 0, 0, [1, 1, 1, 0, 0, 0, 0, 1]>, <167, 21, 31, 10, 15, 0, 0, [1, 1, 1, 0, 0, 0, 0, 1]>, <168, 22, 32, 10, 15, 0, 0, [1, 1, 1, 0, 0, 0, 0, 1]>, <169, 23, 33, 10, 15, 0, 0, [1, 1, 1, 0, 0, 0, 0, 1]>, <170, 24, 34, 10, 15, 0, 0, [1, 1, 1, 0, 0, 0, 0, 1]>, <171, 3, 17, 14, 16, 1, 0, [1, 1, 1, 1, 0, 0, 0, 0]>, <172, 4, 18, 14, 16, 1, 0, [1, 1, 1, 1, 0, 0, 0, 0]>, <173, 5, 19, 14, 16, 1, 0, [1, 1, 1, 1, 0, 0, 0, 0]>, <174, 6, 20, 14, 16, 1, 0, [1, 1, 1, 1, 0, 0, 0, 0]>, <175, 12, 26, 14, 16, 1, 0, [1, 1, 1, 1, 0, 0, 0, 0]>, <176, 13, 27, 14, 16, 1, 0, [1, 1, 1, 1, 0, 0, 0, 0]>, <177, 14, 28, 14, 16, 1, 0, [1, 1, 1, 1, 0, 0, 0, 0]>, <178, 15, 29, 14, 16, 1, 0, [1, 1, 1, 1, 0, 0, 0, 0]>, <179, 17, 31, 14, 16, 1, 0, [1, 1, 1, 1, 0, 0, 0, 0]>, <180, 18, 32, 14, 16, 1, 0, [1, 1, 1, 1, 0, 0, 0, 0]>, <181, 19, 33, 14, 16, 1, 0, [1, 1, 1, 1, 0, 0, 0, 0]>, <182, 20, 34, 14, 16, 1, 0, [1, 1, 1, 1, 0, 0, 0, 0]>, <183, 21, 35, 14, 16, 1, 0, [1, 1, 1, 1, 0, 0, 0, 0]>, <184, 5, 17, 12, 17, 1, 0, [0, 0, 0, 1, 1, 1, 1, 0]>, <185, 6, 18, 12, 17, 1, 0, [0, 0, 0, 1, 1, 1, 1, 0]>, <186, 14, 26, 12, 17, 1, 0, [0, 0, 0, 1, 1, 1, 1, 0]>, <187, 15, 27, 12, 17, 1, 0, [0, 0, 0, 1, 1, 1, 1, 0]>, <188, 19, 31, 12, 17, 1, 0, [0, 0, 0, 1, 1, 1, 1, 0]>, <189, 20, 32, 12, 17, 1, 0, [0, 0, 0, 1, 1, 1, 1, 0]>, <190, 21, 33, 12, 17, 1, 0, [0, 0, 0, 1, 1, 1, 1, 0]>, <191, 22, 34, 12, 17, 1, 0, [0, 0, 0, 1, 1, 1, 1, 0]>, <192, 23, 35, 12, 17, 1, 0, [0, 0, 0, 1, 1, 1, 1, 0]>, <193, 5, 17, 12, 18, 0, 1, [0, 1, 1, 1, 1, 0, 0, 0]>, <194, 6, 18, 12, 18, 0, 1, [0, 1, 1, 1, 1, 0, 0, 0]>, <195, 14, 26, 12, 18, 0, 1, [0, 1, 1, 1, 1, 0, 0, 0]>, <196, 15, 27, 12, 18, 0, 1, [0, 1, 1, 1, 1, 0, 0, 0]>, <197, 19, 31, 12, 18, 0, 1, [0, 1, 1, 1, 1, 0, 0, 0]>, <198, 20, 32, 12, 18, 0, 1, [0, 1, 1, 1, 1, 0, 0, 0]>, <199, 21, 33, 12, 18, 0, 1, [0, 1, 1, 1, 1, 0, 0, 0]>, <200, 22, 34, 12, 18, 0, 1, [0, 1, 1, 1, 1, 0, 0, 0]>, <201, 23, 35, 12, 18, 0, 1, [0, 1, 1, 1, 1, 0, 0, 0]>, <202, 4, 17, 13, 19, 1, 0, [1, 1, 1, 0, 0, 0, 0, 1]>, <203, 5, 18, 13, 19, 1, 0, [1, 1, 1, 0, 0, 0, 0, 1]>, <204, 6, 19, 13, 19, 1, 0, [1, 1, 1, 0, 0, 0, 0, 1]>, <205, 13, 26, 13, 19, 1, 0, [1, 1, 1, 0, 0, 0, 0, 1]>, <206, 14, 27, 13, 19, 1, 0, [1, 1, 1, 0, 0, 0, 0, 1]>, <207, 15, 28, 13, 19, 1, 0, [1, 1, 1, 0, 0, 0, 0, 1]>, <208, 18, 31, 13, 19, 1, 0, [1, 1, 1, 0, 0, 0, 0, 1]>, <209, 19, 32, 13, 19, 1, 0, [1, 1, 1, 0, 0, 0, 0, 1]>, <210, 20, 33, 13, 19, 1, 0, [1, 1, 1, 0, 0, 0, 0, 1]>, <211, 21, 34, 13, 19, 1, 0, [1, 1, 1, 0, 0, 0, 0, 1]>, <212, 22, 35, 13, 19, 1, 0, [1, 1, 1, 0, 0, 0, 0, 1]>, <213, 5, 14, 9, 20, 0, 0, [1, 0, 0, 0, 0, 1, 1, 1]>, <214, 6, 15, 9, 20, 0, 0, [1, 0, 0, 0, 0, 1, 1, 1]>, <215, 14, 23, 9, 20, 0, 0, [1, 0, 0, 0, 0, 1, 1, 1]>, <216, 15, 24, 9, 20, 0, 0, [1, 0, 0, 0, 0, 1, 1, 1]>, <217, 22, 31, 9, 20, 0, 0, [1, 0, 0, 0, 0, 1, 1, 1]>, <218, 23, 32, 9, 20, 0, 0, [1, 0, 0, 0, 0, 1, 1, 1]>, <219, 24, 33, 9, 20, 0, 0, [1, 0, 0, 0, 0, 1, 1, 1]>, <220, 5, 17, 12, 21, 0, 1, [0, 1, 1, 1, 1, 0, 0, 0]>, <221, 6, 18, 12, 21, 0, 1, [0, 1, 1, 1, 1, 0, 0, 0]>, <222, 14, 26, 12, 21, 0, 1, [0, 1, 1, 1, 1, 0, 0, 0]>, <223, 15, 27, 12, 21, 0, 1, [0, 1, 1, 1, 1, 0, 0, 0]>, <224, 19, 31, 12, 21, 0, 1, [0, 1, 1, 1, 1, 0, 0, 0]>, <225, 20, 32, 12, 21, 0, 1, [0, 1, 1, 1, 1, 0, 0, 0]>, <226, 21, 33, 12, 21, 0, 1, [0, 1, 1, 1, 1, 0, 0, 0]>, <227, 22, 34, 12, 21, 0, 1, [0, 1, 1, 1, 1, 0, 0, 0]>, <228, 23, 35, 12, 21, 0, 1, [0, 1, 1, 1, 1, 0, 0, 0]>};
